p cnf 44 484
1 2 0
3 4 0
5 6 0
7 8 0
9 10 0
11 12 0
13 14 0
15 16 0
17 18 0
19 20 0
21 22 0
23 24 0
25 26 0
27 28 0
29 30 0
31 32 0
33 34 0
35 36 0
37 38 0
39 40 0
41 42 0
43 44 0
-1 -3 0
-1 -5 0
-1 -7 0
-1 -9 0
-1 -11 0
-1 -13 0
-1 -15 0
-1 -17 0
-1 -19 0
-1 -21 0
-1 -23 0
-1 -25 0
-1 -27 0
-1 -29 0
-1 -31 0
-1 -33 0
-1 -35 0
-1 -37 0
-1 -39 0
-1 -41 0
-1 -43 0
-3 -5 0
-3 -7 0
-3 -9 0
-3 -11 0
-3 -13 0
-3 -15 0
-3 -17 0
-3 -19 0
-3 -21 0
-3 -23 0
-3 -25 0
-3 -27 0
-3 -29 0
-3 -31 0
-3 -33 0
-3 -35 0
-3 -37 0
-3 -39 0
-3 -41 0
-3 -43 0
-5 -7 0
-5 -9 0
-5 -11 0
-5 -13 0
-5 -15 0
-5 -17 0
-5 -19 0
-5 -21 0
-5 -23 0
-5 -25 0
-5 -27 0
-5 -29 0
-5 -31 0
-5 -33 0
-5 -35 0
-5 -37 0
-5 -39 0
-5 -41 0
-5 -43 0
-7 -9 0
-7 -11 0
-7 -13 0
-7 -15 0
-7 -17 0
-7 -19 0
-7 -21 0
-7 -23 0
-7 -25 0
-7 -27 0
-7 -29 0
-7 -31 0
-7 -33 0
-7 -35 0
-7 -37 0
-7 -39 0
-7 -41 0
-7 -43 0
-9 -11 0
-9 -13 0
-9 -15 0
-9 -17 0
-9 -19 0
-9 -21 0
-9 -23 0
-9 -25 0
-9 -27 0
-9 -29 0
-9 -31 0
-9 -33 0
-9 -35 0
-9 -37 0
-9 -39 0
-9 -41 0
-9 -43 0
-11 -13 0
-11 -15 0
-11 -17 0
-11 -19 0
-11 -21 0
-11 -23 0
-11 -25 0
-11 -27 0
-11 -29 0
-11 -31 0
-11 -33 0
-11 -35 0
-11 -37 0
-11 -39 0
-11 -41 0
-11 -43 0
-13 -15 0
-13 -17 0
-13 -19 0
-13 -21 0
-13 -23 0
-13 -25 0
-13 -27 0
-13 -29 0
-13 -31 0
-13 -33 0
-13 -35 0
-13 -37 0
-13 -39 0
-13 -41 0
-13 -43 0
-15 -17 0
-15 -19 0
-15 -21 0
-15 -23 0
-15 -25 0
-15 -27 0
-15 -29 0
-15 -31 0
-15 -33 0
-15 -35 0
-15 -37 0
-15 -39 0
-15 -41 0
-15 -43 0
-17 -19 0
-17 -21 0
-17 -23 0
-17 -25 0
-17 -27 0
-17 -29 0
-17 -31 0
-17 -33 0
-17 -35 0
-17 -37 0
-17 -39 0
-17 -41 0
-17 -43 0
-19 -21 0
-19 -23 0
-19 -25 0
-19 -27 0
-19 -29 0
-19 -31 0
-19 -33 0
-19 -35 0
-19 -37 0
-19 -39 0
-19 -41 0
-19 -43 0
-21 -23 0
-21 -25 0
-21 -27 0
-21 -29 0
-21 -31 0
-21 -33 0
-21 -35 0
-21 -37 0
-21 -39 0
-21 -41 0
-21 -43 0
-23 -25 0
-23 -27 0
-23 -29 0
-23 -31 0
-23 -33 0
-23 -35 0
-23 -37 0
-23 -39 0
-23 -41 0
-23 -43 0
-25 -27 0
-25 -29 0
-25 -31 0
-25 -33 0
-25 -35 0
-25 -37 0
-25 -39 0
-25 -41 0
-25 -43 0
-27 -29 0
-27 -31 0
-27 -33 0
-27 -35 0
-27 -37 0
-27 -39 0
-27 -41 0
-27 -43 0
-29 -31 0
-29 -33 0
-29 -35 0
-29 -37 0
-29 -39 0
-29 -41 0
-29 -43 0
-31 -33 0
-31 -35 0
-31 -37 0
-31 -39 0
-31 -41 0
-31 -43 0
-33 -35 0
-33 -37 0
-33 -39 0
-33 -41 0
-33 -43 0
-35 -37 0
-35 -39 0
-35 -41 0
-35 -43 0
-37 -39 0
-37 -41 0
-37 -43 0
-39 -41 0
-39 -43 0
-41 -43 0
-2 -4 0
-2 -6 0
-2 -8 0
-2 -10 0
-2 -12 0
-2 -14 0
-2 -16 0
-2 -18 0
-2 -20 0
-2 -22 0
-2 -24 0
-2 -26 0
-2 -28 0
-2 -30 0
-2 -32 0
-2 -34 0
-2 -36 0
-2 -38 0
-2 -40 0
-2 -42 0
-2 -44 0
-4 -6 0
-4 -8 0
-4 -10 0
-4 -12 0
-4 -14 0
-4 -16 0
-4 -18 0
-4 -20 0
-4 -22 0
-4 -24 0
-4 -26 0
-4 -28 0
-4 -30 0
-4 -32 0
-4 -34 0
-4 -36 0
-4 -38 0
-4 -40 0
-4 -42 0
-4 -44 0
-6 -8 0
-6 -10 0
-6 -12 0
-6 -14 0
-6 -16 0
-6 -18 0
-6 -20 0
-6 -22 0
-6 -24 0
-6 -26 0
-6 -28 0
-6 -30 0
-6 -32 0
-6 -34 0
-6 -36 0
-6 -38 0
-6 -40 0
-6 -42 0
-6 -44 0
-8 -10 0
-8 -12 0
-8 -14 0
-8 -16 0
-8 -18 0
-8 -20 0
-8 -22 0
-8 -24 0
-8 -26 0
-8 -28 0
-8 -30 0
-8 -32 0
-8 -34 0
-8 -36 0
-8 -38 0
-8 -40 0
-8 -42 0
-8 -44 0
-10 -12 0
-10 -14 0
-10 -16 0
-10 -18 0
-10 -20 0
-10 -22 0
-10 -24 0
-10 -26 0
-10 -28 0
-10 -30 0
-10 -32 0
-10 -34 0
-10 -36 0
-10 -38 0
-10 -40 0
-10 -42 0
-10 -44 0
-12 -14 0
-12 -16 0
-12 -18 0
-12 -20 0
-12 -22 0
-12 -24 0
-12 -26 0
-12 -28 0
-12 -30 0
-12 -32 0
-12 -34 0
-12 -36 0
-12 -38 0
-12 -40 0
-12 -42 0
-12 -44 0
-14 -16 0
-14 -18 0
-14 -20 0
-14 -22 0
-14 -24 0
-14 -26 0
-14 -28 0
-14 -30 0
-14 -32 0
-14 -34 0
-14 -36 0
-14 -38 0
-14 -40 0
-14 -42 0
-14 -44 0
-16 -18 0
-16 -20 0
-16 -22 0
-16 -24 0
-16 -26 0
-16 -28 0
-16 -30 0
-16 -32 0
-16 -34 0
-16 -36 0
-16 -38 0
-16 -40 0
-16 -42 0
-16 -44 0
-18 -20 0
-18 -22 0
-18 -24 0
-18 -26 0
-18 -28 0
-18 -30 0
-18 -32 0
-18 -34 0
-18 -36 0
-18 -38 0
-18 -40 0
-18 -42 0
-18 -44 0
-20 -22 0
-20 -24 0
-20 -26 0
-20 -28 0
-20 -30 0
-20 -32 0
-20 -34 0
-20 -36 0
-20 -38 0
-20 -40 0
-20 -42 0
-20 -44 0
-22 -24 0
-22 -26 0
-22 -28 0
-22 -30 0
-22 -32 0
-22 -34 0
-22 -36 0
-22 -38 0
-22 -40 0
-22 -42 0
-22 -44 0
-24 -26 0
-24 -28 0
-24 -30 0
-24 -32 0
-24 -34 0
-24 -36 0
-24 -38 0
-24 -40 0
-24 -42 0
-24 -44 0
-26 -28 0
-26 -30 0
-26 -32 0
-26 -34 0
-26 -36 0
-26 -38 0
-26 -40 0
-26 -42 0
-26 -44 0
-28 -30 0
-28 -32 0
-28 -34 0
-28 -36 0
-28 -38 0
-28 -40 0
-28 -42 0
-28 -44 0
-30 -32 0
-30 -34 0
-30 -36 0
-30 -38 0
-30 -40 0
-30 -42 0
-30 -44 0
-32 -34 0
-32 -36 0
-32 -38 0
-32 -40 0
-32 -42 0
-32 -44 0
-34 -36 0
-34 -38 0
-34 -40 0
-34 -42 0
-34 -44 0
-36 -38 0
-36 -40 0
-36 -42 0
-36 -44 0
-38 -40 0
-38 -42 0
-38 -44 0
-40 -42 0
-40 -44 0
-42 -44 0
